p cnf 14 34
-14 -13 3 0
-14 12 6 0
14 -9 -5 0
14 8 4 0
-14 7 6 0
-14 -6 -5 0
14 -6 2 0
-13 -12 10 0
-13 11 -3 0
13 9 3 0
-13 -9 1 0
-13 -8 6 0
13 -4 -3 0
13 3 -1 0
12 11 -2 0
-12 -11 1 0
-12 10 -8 0
12 -10 -7 0
-12 -7 5 0
11 -8 3 0
-11 -7 -5 0
11 3 -1 0
10 -9 -8 0
-10 8 -6 0
10 -8 -3 0
-10 -7 5 0
-9 8 -5 0
9 -4 1 0
7 -6 1 0
-7 4 3 0
6 4 -2 0
-6 -4 -1 0
-6 3 1 0
5 4 -2 0
